
Gurobi 9.5.2 (mac64[arm]) logging started Wed Apr 19 19:05:33 2023

Set parameter LogFile to value "Java/output/iterative_model/scenario_seed_2_nJob_30_machineCount_1/mip_increment_1/log.txt"
Gurobi Optimizer version 9.5.2 build v9.5.2rc0 (mac64[arm])
Thread count: 8 physical cores, 8 logical processors, using up to 8 threads
Optimize a model with 1394 rows, 6720 columns and 73456 nonzeros
Model fingerprint: 0xde6038bf
Variable types: 0 continuous, 6720 integer (6720 binary)
Coefficient statistics:
  Matrix range     [1e+00, 2e+02]
  Objective range  [2e+01, 5e+06]
  Bounds range     [1e+00, 1e+00]
  RHS range        [1e+00, 1e+00]
Found heuristic solution: objective 1.779835e+07
Presolve removed 100 rows and 580 columns
Presolve time: 0.09s
Presolved: 1294 rows, 6140 columns, 65829 nonzeros
Variable types: 0 continuous, 6140 integer (6134 binary)
Found heuristic solution: objective 1.471242e+07

Root relaxation: objective 6.714158e+03, 1083 iterations, 0.03 seconds (0.06 work units)

    Nodes    |    Current Node    |     Objective Bounds      |     Work
 Expl Unexpl |  Obj  Depth IntInf | Incumbent    BestBd   Gap | It/Node Time

     0     0 6714.15800    0   59 1.4712e+07 6714.15800   100%     -    0s
H    0     0                    3280944.0000 6714.15800   100%     -    0s
H    0     0                    2931136.0000 6811.25173   100%     -    0s
H    0     0                    1909888.0000 6811.25173   100%     -    0s
     0     0 6811.25173    0  118 1909888.00 6811.25173   100%     -    0s
H    0     0                    772896.00000 6811.25173  99.1%     -    0s
     0     0 6827.96910    0  113 772896.000 6827.96910  99.1%     -    0s
     0     0 6828.06710    0  126 772896.000 6828.06710  99.1%     -    0s
     0     0 6828.06710    0  127 772896.000 6828.06710  99.1%     -    0s
H    0     0                    184304.00000 6903.33942  96.3%     -    0s
H    0     0                    184176.00000 6903.33942  96.3%     -    0s
     0     0 6903.33942    0  190 184176.000 6903.33942  96.3%     -    0s
     0     0 6925.57372    0  180 184176.000 6925.57372  96.2%     -    0s
     0     0 6927.62314    0  185 184176.000 6927.62314  96.2%     -    0s
     0     0 6927.62314    0  188 184176.000 6927.62314  96.2%     -    0s
H    0     0                    184080.00000 6927.62314  96.2%     -    0s
H    0     0                    9216.0000000 6927.62314  24.8%     -    0s
H    0     0                    9200.0000000 6927.62314  24.7%     -    0s
H    0     0                    9184.0000000 6927.62314  24.6%     -    0s
     0     0 7030.25838    0  181 9184.00000 7030.25838  23.5%     -    0s
     0     0 7030.25838    0   57 9184.00000 7030.25838  23.5%     -    0s
H    0     0                    9152.0000000 7030.25838  23.2%     -    0s
     0     0 7030.25838    0  139 9152.00000 7030.25838  23.2%     -    0s
     0     0 7051.46312    0  157 9152.00000 7051.46312  23.0%     -    0s
     0     0 7073.05204    0  173 9152.00000 7073.05204  22.7%     -    0s
     0     0 7073.51723    0  188 9152.00000 7073.51723  22.7%     -    0s
     0     0 7073.52027    0  188 9152.00000 7073.52027  22.7%     -    0s
H    0     0                    9104.0000000 7073.52027  22.3%     -    0s
H    0     0                    7392.0000000 7073.52027  4.31%     -    0s
     0     0 7096.78277    0  184 7392.00000 7096.78277  3.99%     -    0s
     0     0 7098.33913    0  190 7392.00000 7098.33913  3.97%     -    0s
H    0     0                    7344.0000000 7098.33913  3.35%     -    0s
     0     0 7098.87869    0  190 7344.00000 7098.87869  3.34%     -    0s
     0     0 7099.10854    0  195 7344.00000 7099.10854  3.33%     -    0s
     0     0 7099.13598    0  201 7344.00000 7099.13598  3.33%     -    0s
     0     0 7136.56326    0  217 7344.00000 7136.56326  2.82%     -    1s
H    0     0                    7312.0000000 7136.56326  2.40%     -    1s
     0     0 7158.07439    0  199 7312.00000 7158.07439  2.11%     -    1s
     0     0 7159.73367    0  202 7312.00000 7159.73367  2.08%     -    1s
     0     0 7159.84526    0  210 7312.00000 7159.84526  2.08%     -    1s
     0     0 7175.47213    0  203 7312.00000 7175.47213  1.87%     -    1s
     0     0 7178.69563    0  223 7312.00000 7178.69563  1.82%     -    1s
     0     0 7179.10517    0  226 7312.00000 7179.10517  1.82%     -    1s
     0     0 7179.15999    0  226 7312.00000 7179.15999  1.82%     -    1s
     0     0 7193.16253    0  222 7312.00000 7193.16253  1.63%     -    1s
     0     0 7195.46034    0  227 7312.00000 7195.46034  1.59%     -    1s
     0     0 7195.75818    0  234 7312.00000 7195.75818  1.59%     -    1s
     0     0 7195.87623    0  234 7312.00000 7195.87623  1.59%     -    1s
     0     0 7200.68935    0  220 7312.00000 7200.68935  1.52%     -    1s
     0     0 7201.67372    0  230 7312.00000 7201.67372  1.51%     -    1s
     0     0 7201.89793    0  232 7312.00000 7201.89793  1.51%     -    1s
     0     0 7205.02398    0  234 7312.00000 7205.02398  1.46%     -    1s
     0     0 7205.69982    0  243 7312.00000 7205.69982  1.45%     -    1s
     0     0 7205.79351    0  246 7312.00000 7205.79351  1.45%     -    1s
     0     0 7207.24625    0  241 7312.00000 7207.24625  1.43%     -    1s
     0     0 7207.24625    0  239 7312.00000 7207.24625  1.43%     -    1s
     0     0 7207.34405    0   65 7312.00000 7207.34405  1.43%     -    1s
     0     0 7207.34405    0  162 7312.00000 7207.34405  1.43%     -    1s
     0     0 7207.34405    0  185 7312.00000 7207.34405  1.43%     -    1s
     0     0 7211.81772    0  184 7312.00000 7211.81772  1.37%     -    1s
     0     0 7216.35114    0  185 7312.00000 7216.35114  1.31%     -    1s
     0     0 7217.54643    0  193 7312.00000 7217.54643  1.29%     -    1s
     0     0 7217.62627    0  199 7312.00000 7217.62627  1.29%     -    1s
     0     0 7221.78501    0  209 7312.00000 7221.78501  1.23%     -    1s
     0     0 7223.54241    0  216 7312.00000 7223.54241  1.21%     -    1s
     0     0 7223.68291    0  214 7312.00000 7223.68291  1.21%     -    1s
     0     0 7225.49862    0  229 7312.00000 7225.49862  1.18%     -    1s
     0     0 7225.61287    0  231 7312.00000 7225.61287  1.18%     -    1s
     0     0 7227.26975    0  225 7312.00000 7227.26975  1.16%     -    1s
     0     0 7227.26975    0  217 7312.00000 7227.26975  1.16%     -    1s
     0     2 7227.27352    0  217 7312.00000 7227.27352  1.16%     -    1s

Cutting planes:
  Cover: 1
  Clique: 46
  MIR: 36
  StrongCG: 14
  GUB cover: 32
  Zero half: 7
  Mod-K: 1
  RLT: 1
  Relax-and-lift: 1

Explored 25 nodes (16715 simplex iterations) in 1.79 seconds (2.87 work units)
Thread count was 8 (of 8 available processors)

Solution count 10: 7312 7344 7392 ... 184176

Optimal solution found (tolerance 1.00e-04)
Best objective 7.312000000000e+03, best bound 7.312000000000e+03, gap 0.0000%

Gurobi 9.5.2 (mac64[arm]) logging started Wed Apr 19 19:05:35 2023

Set parameter LogFile to value "Java/output/iterative_model/scenario_seed_2_nJob_30_machineCount_1/mip_increment_1/log.txt"
Gurobi Optimizer version 9.5.2 build v9.5.2rc0 (mac64[arm])
Thread count: 8 physical cores, 8 logical processors, using up to 8 threads
Optimize a model with 1390 rows, 4680 columns and 54849 nonzeros
Model fingerprint: 0xcdb2a5fc
Variable types: 0 continuous, 4680 integer (4680 binary)
Coefficient statistics:
  Matrix range     [1e+00, 2e+02]
  Objective range  [3e+02, 7e+05]
  Bounds range     [1e+00, 1e+00]
  RHS range        [1e+00, 1e+00]
Presolve removed 430 rows and 477 columns
Presolve time: 0.07s
Presolved: 960 rows, 4203 columns, 49425 nonzeros
Variable types: 0 continuous, 4203 integer (4203 binary)

Root relaxation: objective 4.400077e+03, 1073 iterations, 0.03 seconds (0.05 work units)

    Nodes    |    Current Node    |     Objective Bounds      |     Work
 Expl Unexpl |  Obj  Depth IntInf | Incumbent    BestBd   Gap | It/Node Time

     0     0 4400.07684    0   65          - 4400.07684      -     -    0s
H    0     0                    1367460.0000 4400.07684   100%     -    0s
H    0     0                    966132.00000 4400.07684   100%     -    0s
H    0     0                    728672.00000 4400.07684  99.4%     -    0s
H    0     0                    241000.00000 4400.07684  98.2%     -    0s
H    0     0                    222068.00000 4400.07684  98.0%     -    0s
H    0     0                    113804.00000 4496.61600  96.0%     -    0s
     0     0 4496.61600    0  100 113804.000 4496.61600  96.0%     -    0s
H    0     0                    112440.00000 4496.61600  96.0%     -    0s
     0     0 4583.75922    0  112 112440.000 4583.75922  95.9%     -    0s
H    0     0                    112396.00000 4583.75922  95.9%     -    0s
     0     0 4587.37420    0  109 112396.000 4587.37420  95.9%     -    0s
     0     0 5014.59697    0   96 112396.000 5014.59697  95.5%     -    0s
     0     0 5123.77373    0  130 112396.000 5123.77373  95.4%     -    0s
     0     0 5147.21878    0  134 112396.000 5147.21878  95.4%     -    0s
     0     0 5162.55394    0  135 112396.000 5162.55394  95.4%     -    0s
     0     0 5162.55394    0  135 112396.000 5162.55394  95.4%     -    0s
     0     0 5620.56047    0  140 112396.000 5620.56047  95.0%     -    0s
H    0     0                    97492.000000 5620.56047  94.2%     -    0s
     0     0 5771.41301    0  119 97492.0000 5771.41301  94.1%     -    0s
     0     0 5798.13070    0  128 97492.0000 5798.13070  94.1%     -    0s
     0     0 5814.62817    0  139 97492.0000 5814.62817  94.0%     -    0s
     0     0 5814.97619    0  136 97492.0000 5814.97619  94.0%     -    0s
     0     0 6219.71804    0  128 97492.0000 6219.71804  93.6%     -    0s
     0     0 6246.33984    0  133 97492.0000 6246.33984  93.6%     -    0s
     0     0 6256.82655    0  172 97492.0000 6256.82655  93.6%     -    0s
     0     0 6257.86622    0  160 97492.0000 6257.86622  93.6%     -    0s
     0     0 6291.76635    0  153 97492.0000 6291.76635  93.5%     -    0s
     0     0 6291.76635    0   64 97492.0000 6291.76635  93.5%     -    0s
     0     0 6291.76635    0  107 97492.0000 6291.76635  93.5%     -    0s
     0     0 6291.76635    0  128 97492.0000 6291.76635  93.5%     -    0s
     0     0 6291.76635    0  139 97492.0000 6291.76635  93.5%     -    0s
     0     0 6291.76635    0  154 97492.0000 6291.76635  93.5%     -    0s
     0     0 6299.80082    0  162 97492.0000 6299.80082  93.5%     -    0s
     0     0 6300.65329    0  162 97492.0000 6300.65329  93.5%     -    0s
H    0     0                    8952.0000000 6300.65329  29.6%     -    1s
     0     0 6399.96258    0  167 8952.00000 6399.96258  28.5%     -    1s
H    0     0                    8944.0000000 6399.96258  28.4%     -    1s
     0     0 6434.01723    0  166 8944.00000 6434.01723  28.1%     -    1s
     0     0 6440.40717    0  173 8944.00000 6440.40717  28.0%     -    1s
H    0     0                    8828.0000000 6440.40717  27.0%     -    1s
H    0     0                    8816.0000000 6440.40717  26.9%     -    1s
H    0     0                    8752.0000000 6440.40717  26.4%     -    1s
     0     0 6680.29184    0  157 8752.00000 6680.29184  23.7%     -    1s
     0     0 6680.29184    0   75 8752.00000 6680.29184  23.7%     -    1s
     0     0 7439.61039    0   65 8752.00000 7439.61039  15.0%     -    1s
     0     0 8012.86977    0   67 8752.00000 8012.86977  8.45%     -    1s
     0     0 8023.78446    0   80 8752.00000 8023.78446  8.32%     -    1s
     0     0 8026.00286    0   94 8752.00000 8026.00286  8.30%     -    1s
     0     0 8026.30424    0   97 8752.00000 8026.30424  8.29%     -    1s
     0     0 8070.95890    0   57 8752.00000 8070.95890  7.78%     -    1s
H    0     0                    8748.0000000 8070.95890  7.74%     -    1s
     0     0 8072.30769    0   28 8748.00000 8072.30769  7.72%     -    1s
     0     0 8077.47783    0   50 8748.00000 8077.47783  7.66%     -    1s
     0     0 8077.51200    0   52 8748.00000 8077.51200  7.66%     -    1s
H    0     0                    8088.0000000 8077.51200  0.13%     -    1s
     0     0 8083.33333    0   16 8088.00000 8083.33333  0.06%     -    1s
H    0     0                    8084.0000000 8083.33333  0.01%     -    1s

Explored 1 nodes (12416 simplex iterations) in 1.35 seconds (2.28 work units)
Thread count was 8 (of 8 available processors)

Solution count 10: 8084 8088 8748 ... 112396

Optimal solution found (tolerance 1.00e-04)
Best objective 8.084000000000e+03, best bound 8.084000000000e+03, gap 0.0000%

Gurobi 9.5.2 (mac64[arm]) logging started Wed Apr 19 19:05:37 2023

Set parameter LogFile to value "Java/output/iterative_model/scenario_seed_2_nJob_30_machineCount_1/mip_increment_1/log.txt"
Gurobi Optimizer version 9.5.2 build v9.5.2rc0 (mac64[arm])
Thread count: 8 physical cores, 8 logical processors, using up to 8 threads
Optimize a model with 1402 rows, 3225 columns and 33249 nonzeros
Model fingerprint: 0x52bbc9ee
Variable types: 0 continuous, 3225 integer (3225 binary)
Coefficient statistics:
  Matrix range     [1e+00, 2e+02]
  Objective range  [1e+02, 8e+04]
  Bounds range     [1e+00, 1e+00]
  RHS range        [1e+00, 1e+00]
Presolve removed 835 rows and 643 columns
Presolve time: 0.04s
Presolved: 567 rows, 2582 columns, 25970 nonzeros
Variable types: 0 continuous, 2582 integer (2574 binary)

Root relaxation: objective 1.642006e+04, 909 iterations, 0.02 seconds (0.02 work units)

    Nodes    |    Current Node    |     Objective Bounds      |     Work
 Expl Unexpl |  Obj  Depth IntInf | Incumbent    BestBd   Gap | It/Node Time

     0     0 16420.0595    0   71          - 16420.0595      -     -    0s
     0     0 16624.4264    0   94          - 16624.4264      -     -    0s
     0     0 16626.9216    0   87          - 16626.9216      -     -    0s
     0     0 16626.9216    0   90          - 16626.9216      -     -    0s
     0     0 16844.2870    0  100          - 16844.2870      -     -    0s
     0     0 16844.2870    0  102          - 16844.2870      -     -    0s
H    0     0                    19514.000000 16947.2513  13.2%     -    0s
H    0     0                    19072.000000 16947.2513  11.1%     -    0s
     0     0 16947.3594    0  124 19072.0000 16947.3594  11.1%     -    0s
H    0     0                    18899.000000 16947.3594  10.3%     -    0s
     0     0 16964.7008    0  138 18899.0000 16964.7008  10.2%     -    0s
H    0     0                    18895.000000 16978.8910  10.1%     -    0s
     0     0 16978.8910    0  137 18895.0000 16978.8910  10.1%     -    0s
     0     0 16983.4182    0  135 18895.0000 16983.4182  10.1%     -    0s
     0     0 16984.7770    0  132 18895.0000 16984.7770  10.1%     -    0s
     0     0 17221.9984    0  126 18895.0000 17221.9984  8.85%     -    0s
     0     0 17221.9984    0   30 18895.0000 17221.9984  8.85%     -    0s
     0     0 17221.9984    0  116 18895.0000 17221.9984  8.85%     -    0s
     0     0 17240.0000    0   34 18895.0000 17240.0000  8.76%     -    0s
     0     0 17240.0000    0   33 18895.0000 17240.0000  8.76%     -    0s
     0     0 17252.6538    0  124 18895.0000 17252.6538  8.69%     -    0s
     0     0 17276.3728    0  178 18895.0000 17276.3728  8.57%     -    0s
     0     0 17277.7215    0  185 18895.0000 17277.7215  8.56%     -    0s
     0     0 17279.8742    0  161 18895.0000 17279.8742  8.55%     -    0s
     0     0 17280.2757    0  168 18895.0000 17280.2757  8.55%     -    0s
     0     0 17280.2757    0  169 18895.0000 17280.2757  8.55%     -    0s
     0     0 17319.2533    0  160 18895.0000 17319.2533  8.34%     -    0s
     0     0 17326.4589    0  167 18895.0000 17326.4589  8.30%     -    0s
     0     0 17326.8372    0  180 18895.0000 17326.8372  8.30%     -    0s
     0     0 17326.9319    0  185 18895.0000 17326.9319  8.30%     -    0s
     0     0 17344.6964    0  189 18895.0000 17344.6964  8.20%     -    0s
     0     0 17348.1289    0  187 18895.0000 17348.1289  8.19%     -    0s
     0     0 17349.4251    0  196 18895.0000 17349.4251  8.18%     -    0s
     0     0 17349.7734    0  198 18895.0000 17349.7734  8.18%     -    0s
     0     0 17368.6914    0  162 18895.0000 17368.6914  8.08%     -    0s
     0     0 17370.6809    0  175 18895.0000 17370.6809  8.07%     -    0s
     0     0 17370.6968    0  181 18895.0000 17370.6968  8.07%     -    0s
     0     0 17379.4726    0  181 18895.0000 17379.4726  8.02%     -    0s
     0     0 17386.3902    0  178 18895.0000 17386.3902  7.98%     -    0s
     0     0 17387.9317    0  184 18895.0000 17387.9317  7.98%     -    0s
     0     0 17388.0516    0  185 18895.0000 17388.0516  7.98%     -    0s
     0     0 17414.1910    0  207 18895.0000 17414.1910  7.84%     -    0s
     0     0 17420.9636    0  197 18895.0000 17420.9636  7.80%     -    0s
     0     0 17424.0437    0  200 18895.0000 17424.0437  7.78%     -    0s
     0     0 17424.0460    0  199 18895.0000 17424.0460  7.78%     -    0s
     0     0 17430.1774    0  226 18895.0000 17430.1774  7.75%     -    0s
     0     0 17432.2407    0  223 18895.0000 17432.2407  7.74%     -    0s
     0     0 17433.5266    0  205 18895.0000 17433.5266  7.73%     -    0s
     0     0 17433.7523    0  216 18895.0000 17433.7523  7.73%     -    0s
     0     0 17459.5036    0  214 18895.0000 17459.5036  7.60%     -    0s
     0     0 17462.6406    0  214 18895.0000 17462.6406  7.58%     -    0s
     0     0 17462.8073    0  214 18895.0000 17462.8073  7.58%     -    0s
     0     0 17495.1392    0  213 18895.0000 17495.1392  7.41%     -    0s
     0     0 17497.4179    0  210 18895.0000 17497.4179  7.40%     -    0s
     0     0 17499.4194    0  228 18895.0000 17499.4194  7.39%     -    0s
     0     0 17499.4225    0  222 18895.0000 17499.4225  7.39%     -    0s
     0     0 17518.1584    0  216 18895.0000 17518.1584  7.29%     -    0s
     0     0 17526.4792    0  207 18895.0000 17526.4792  7.24%     -    0s
     0     0 17528.6822    0  210 18895.0000 17528.6822  7.23%     -    0s
     0     0 17530.0446    0  206 18895.0000 17530.0446  7.22%     -    0s
     0     0 17530.1192    0  202 18895.0000 17530.1192  7.22%     -    0s
     0     0 17544.1278    0  221 18895.0000 17544.1278  7.15%     -    0s
     0     0 17551.7999    0  224 18895.0000 17551.7999  7.11%     -    0s
     0     0 17553.6090    0  217 18895.0000 17553.6090  7.10%     -    1s
     0     0 17554.2654    0  215 18895.0000 17554.2654  7.10%     -    1s
     0     0 17560.6312    0  213 18895.0000 17560.6312  7.06%     -    1s
     0     0 17560.8481    0  208 18895.0000 17560.8481  7.06%     -    1s
     0     0 17590.7159    0  201 18895.0000 17590.7159  6.90%     -    1s
     0     0 17626.1360    0  195 18895.0000 17626.1360  6.72%     -    1s
     0     0 17626.2318    0  207 18895.0000 17626.2318  6.71%     -    1s
     0     0 17641.8697    0  212 18895.0000 17641.8697  6.63%     -    1s
     0     0 17644.0012    0  214 18895.0000 17644.0012  6.62%     -    1s
     0     0 17644.1072    0  200 18895.0000 17644.1072  6.62%     -    1s
     0     0 17645.2177    0  200 18895.0000 17645.2177  6.61%     -    1s
     0     0 17645.2177    0  183 18895.0000 17645.2177  6.61%     -    1s
     0     0 17646.0468    0   65 18895.0000 17646.0468  6.61%     -    1s
     0     0 17646.0468    0   85 18895.0000 17646.0468  6.61%     -    1s
     0     0 17646.0468    0  130 18895.0000 17646.0468  6.61%     -    1s
     0     0 17646.0468    0  113 18895.0000 17646.0468  6.61%     -    1s
     0     0 17650.9282    0  136 18895.0000 17650.9282  6.58%     -    1s
     0     0 17661.0289    0  138 18895.0000 17661.0289  6.53%     -    1s
     0     0 17663.8709    0  144 18895.0000 17663.8709  6.52%     -    1s
     0     0 17663.8709    0  153 18895.0000 17663.8709  6.52%     -    1s
     0     0 17675.6797    0  179 18895.0000 17675.6797  6.45%     -    1s
     0     0 17688.3716    0  166 18895.0000 17688.3716  6.39%     -    1s
     0     0 17690.0894    0  168 18895.0000 17690.0894  6.38%     -    1s
     0     0 17691.6557    0  182 18895.0000 17691.6557  6.37%     -    1s
     0     0 17692.7111    0  173 18895.0000 17692.7111  6.36%     -    1s
     0     0 17692.8239    0  181 18895.0000 17692.8239  6.36%     -    1s
     0     0 17772.3773    0  183 18895.0000 17772.3773  5.94%     -    1s
     0     0 17776.5387    0  181 18895.0000 17776.5387  5.92%     -    1s
     0     0 17776.7807    0  191 18895.0000 17776.7807  5.92%     -    1s
     0     0 17855.6013    0  198 18895.0000 17855.6013  5.50%     -    1s
     0     0 17855.6013    0  193 18895.0000 17855.6013  5.50%     -    1s
     0     0 17855.6013    0  198 18895.0000 17855.6013  5.50%     -    1s
     0     0 17855.6013    0  194 18895.0000 17855.6013  5.50%     -    1s
     0     0 17855.6013    0  195 18895.0000 17855.6013  5.50%     -    1s
     0     0 17884.6779    0  212 18895.0000 17884.6779  5.35%     -    1s
     0     0 17884.6779    0  194 18895.0000 17884.6779  5.35%     -    1s
     0     0 17884.6779    0  189 18895.0000 17884.6779  5.35%     -    1s
     0     0 17884.6779    0  190 18895.0000 17884.6779  5.35%     -    1s
     0     0 17884.6779    0  215 18895.0000 17884.6779  5.35%     -    1s
     0     0 17884.6779    0  203 18895.0000 17884.6779  5.35%     -    1s
     0     0 17884.6779    0  200 18895.0000 17884.6779  5.35%     -    1s
     0     0 17884.6779    0  203 18895.0000 17884.6779  5.35%     -    1s
     0     0 17982.2727    0  201 18895.0000 17982.2727  4.83%     -    1s
     0     0 18121.0930    0  194 18895.0000 18121.0930  4.10%     -    1s
     0     0 18121.0930    0  193 18895.0000 18121.0930  4.10%     -    1s
     0     0 18275.1600    0  174 18895.0000 18275.1600  3.28%     -    1s
     0     0 18275.1600    0  178 18895.0000 18275.1600  3.28%     -    1s
     0     0 18365.1905    0  172 18895.0000 18365.1905  2.80%     -    1s
     0     0 18895.0000    0  177 18895.0000 18895.0000  0.00%     -    1s

Cutting planes:
  Cover: 10
  Clique: 55
  MIR: 34
  StrongCG: 10
  GUB cover: 30
  Zero half: 1
  Mod-K: 2
  RLT: 3
  Relax-and-lift: 1

Explored 1 nodes (21114 simplex iterations) in 1.61 seconds (2.33 work units)
Thread count was 8 (of 8 available processors)

Solution count 4: 18895 18899 19072 19514 

Optimal solution found (tolerance 1.00e-04)
Best objective 1.889500000000e+04, best bound 1.889500000000e+04, gap 0.0000%

Gurobi 9.5.2 (mac64[arm]) logging started Wed Apr 19 19:05:38 2023

Set parameter LogFile to value "Java/output/iterative_model/scenario_seed_2_nJob_30_machineCount_1/mip_increment_1/log.txt"
Gurobi Optimizer version 9.5.2 build v9.5.2rc0 (mac64[arm])
Thread count: 8 physical cores, 8 logical processors, using up to 8 threads
Optimize a model with 1498 rows, 20608 columns and 227480 nonzeros
Model fingerprint: 0xcd63df13
Variable types: 0 continuous, 20608 integer (20608 binary)
Coefficient statistics:
  Matrix range     [1e+00, 2e+02]
  Objective range  [2e+00, 5e+06]
  Bounds range     [1e+00, 1e+00]
  RHS range        [1e+00, 1e+00]

Warning: Completing partial solution with 20516 unfixed non-continuous variables out of 20608
User MIP start produced solution with objective 19657 (0.01s)
Loaded user MIP start with objective 19657

Presolve removed 39 rows and 1874 columns
Presolve time: 0.21s
Presolved: 1459 rows, 18734 columns, 203465 nonzeros
Variable types: 0 continuous, 18734 integer (18712 binary)

Root relaxation: objective 1.215294e+04, 13254 iterations, 1.14 seconds (2.73 work units)

    Nodes    |    Current Node    |     Objective Bounds      |     Work
 Expl Unexpl |  Obj  Depth IntInf | Incumbent    BestBd   Gap | It/Node Time

     0     0 12152.9370    0  306 19657.0000 12152.9370  38.2%     -    1s
H    0     0                    19648.000000 12152.9370  38.1%     -    1s
H    0     0                    19641.000000 12261.6542  37.6%     -    2s
     0     0 12261.6542    0  489 19641.0000 12261.6542  37.6%     -    3s
     0     0 12273.5713    0  501 19641.0000 12273.5713  37.5%     -    4s
     0     0 12273.7955    0  503 19641.0000 12273.7955  37.5%     -    4s
     0     0 12273.7978    0  509 19641.0000 12273.7978  37.5%     -    4s
     0     0 12351.4203    0  518 19641.0000 12351.4203  37.1%     -    6s
     0     0 12363.3092    0  559 19641.0000 12363.3092  37.1%     -    7s
     0     0 12363.7924    0  575 19641.0000 12363.7924  37.1%     -    7s
     0     0 12363.9000    0  573 19641.0000 12363.9000  37.1%     -    7s
     0     0 12363.9021    0  583 19641.0000 12363.9021  37.1%     -    7s
     0     0 12428.6420    0  588 19641.0000 12428.6420  36.7%     -    8s
     0     0 12428.6420    0  334 19641.0000 12428.6420  36.7%     -   10s
H    0     0                    19568.000000 12428.6420  36.5%     -   10s
     0     0 12428.6420    0  522 19568.0000 12428.6420  36.5%     -   11s
     0     0 12482.3616    0  549 19568.0000 12482.3616  36.2%     -   12s
     0     0 12494.5172    0  539 19568.0000 12494.5172  36.1%     -   13s
     0     0 12495.6434    0  553 19568.0000 12495.6434  36.1%     -   13s
     0     0 12495.6448    0  552 19568.0000 12495.6448  36.1%     -   13s
     0     0 12566.9547    0  631 19568.0000 12566.9547  35.8%     -   15s
     0     0 12581.2272    0  660 19568.0000 12581.2272  35.7%     -   15s
     0     0 12583.1290    0  666 19568.0000 12583.1290  35.7%     -   16s
     0     0 12583.3342    0  679 19568.0000 12583.3342  35.7%     -   16s
     0     0 12583.3370    0  676 19568.0000 12583.3370  35.7%     -   16s
     0     0 12633.4110    0  676 19568.0000 12633.4110  35.4%     -   17s
     0     0 12640.9364    0  696 19568.0000 12640.9364  35.4%     -   17s
     0     0 12643.1976    0  712 19568.0000 12643.1976  35.4%     -   17s
     0     0 12643.5405    0  704 19568.0000 12643.5405  35.4%     -   18s
     0     0 12643.5603    0  700 19568.0000 12643.5603  35.4%     -   18s
     0     0 12682.5010    0  719 19568.0000 12682.5010  35.2%     -   19s
H    0     0                    19557.000000 12682.5010  35.2%     -   19s
     0     0 12686.6710    0  750 19557.0000 12686.6710  35.1%     -   19s
     0     0 12687.6146    0  739 19557.0000 12687.6146  35.1%     -   19s
     0     0 12687.7555    0  744 19557.0000 12687.7555  35.1%     -   19s
     0     0 12723.7876    0  711 19557.0000 12723.7876  34.9%     -   21s
     0     0 12729.3592    0  749 19557.0000 12729.3592  34.9%     -   21s
     0     0 12730.2958    0  768 19557.0000 12730.2958  34.9%     -   21s
     0     0 12730.5681    0  774 19557.0000 12730.5681  34.9%     -   21s
     0     0 12754.3738    0  782 19557.0000 12754.3738  34.8%     -   22s
     0     0 12758.8563    0  806 19557.0000 12758.8563  34.8%     -   22s
     0     0 12760.1803    0  821 19557.0000 12760.1803  34.8%     -   23s
     0     0 12760.9220    0  833 19557.0000 12760.9220  34.8%     -   23s
     0     0 12761.0734    0  839 19557.0000 12761.0734  34.7%     -   23s
     0     0 12790.4552    0  838 19557.0000 12790.4552  34.6%     -   24s
H    0     0                    15665.000000 12790.4552  18.4%     -   24s
     0     0 12793.7730    0  831 15665.0000 12793.7730  18.3%     -   24s
     0     0 12794.1853    0  880 15665.0000 12794.1853  18.3%     -   25s
     0     0 12794.2871    0  883 15665.0000 12794.2871  18.3%     -   25s
     0     0 12811.6601    0  870 15665.0000 12811.6601  18.2%     -   25s
H    0     0                    15573.000000 12811.6601  17.7%     -   25s
     0     0 12818.9260    0  911 15573.0000 12818.9260  17.7%     -   26s
     0     0 12821.0290    0  912 15573.0000 12821.0290  17.7%     -   26s
     0     0 12821.5146    0  933 15573.0000 12821.5146  17.7%     -   26s
     0     0 12821.7207    0  942 15573.0000 12821.7207  17.7%     -   26s
     0     0 12873.0624    0  908 15573.0000 12873.0624  17.3%     -   28s
     0     0 12879.1159    0  919 15573.0000 12879.1159  17.3%     -   29s
     0     0 12879.8277    0  944 15573.0000 12879.8277  17.3%     -   29s
     0     0 12880.3612    0  954 15573.0000 12880.3612  17.3%     -   29s
     0     0 12880.4475    0  980 15573.0000 12880.4475  17.3%     -   29s
     0     0 12945.6311    0  866 15573.0000 12945.6311  16.9%     -   30s
     0     0 12949.2504    0  876 15573.0000 12949.2504  16.8%     -   31s
     0     0 12950.6639    0  890 15573.0000 12950.6639  16.8%     -   31s
     0     0 12951.3342    0  903 15573.0000 12951.3342  16.8%     -   31s
     0     0 12951.7021    0  912 15573.0000 12951.7021  16.8%     -   32s
     0     0 12985.1543    0  825 15573.0000 12985.1543  16.6%     -   33s
     0     0 12992.0954    0  904 15573.0000 12992.0954  16.6%     -   34s
     0     0 12993.2896    0  898 15573.0000 12993.2896  16.6%     -   34s
     0     0 12993.5041    0  925 15573.0000 12993.5041  16.6%     -   34s
     0     0 13036.3507    0  882 15573.0000 13036.3507  16.3%     -   35s
H    0     0                    15533.000000 13036.3507  16.1%     -   35s
     0     0 13052.7292    0  932 15533.0000 13052.7292  16.0%     -   36s
     0     0 13055.3255    0  948 15533.0000 13055.3255  16.0%     -   37s
     0     0 13055.7587    0  965 15533.0000 13055.7587  15.9%     -   37s
     0     0 13133.3024    0  881 15533.0000 13133.3024  15.4%     -   38s
     0     0 13148.1663    0  907 15533.0000 13148.1663  15.4%     -   40s
     0     0 13150.4984    0  900 15533.0000 13150.4984  15.3%     -   40s
     0     0 13150.8542    0  904 15533.0000 13150.8542  15.3%     -   41s
     0     0 13215.2779    0  963 15533.0000 13215.2779  14.9%     -   42s
     0     0 13220.0037    0  956 15533.0000 13220.0037  14.9%     -   42s
     0     0 13221.7142    0  976 15533.0000 13221.7142  14.9%     -   43s
     0     0 13221.9037    0  978 15533.0000 13221.9037  14.9%     -   43s
     0     0 13282.6759    0  982 15533.0000 13282.6759  14.5%     -   44s
     0     0 13298.5378    0  982 15533.0000 13298.5378  14.4%     -   46s
     0     0 13300.1521    0  982 15533.0000 13300.1521  14.4%     -   47s
     0     0 13301.0721    0 1021 15533.0000 13301.0721  14.4%     -   47s
     0     0 13376.3254    0  999 15533.0000 13376.3254  13.9%     -   49s
     0     0 13420.8525    0  975 15533.0000 13420.8525  13.6%     -   51s
     0     0 13424.3073    0  980 15533.0000 13424.3073  13.6%     -   51s
     0     0 13424.7557    0  998 15533.0000 13424.7557  13.6%     -   51s
     0     0 13439.4720    0  954 15533.0000 13439.4720  13.5%     -   52s
     0     0 13444.1291    0  947 15533.0000 13444.1291  13.4%     -   52s
     0     0 13444.3998    0  970 15533.0000 13444.3998  13.4%     -   53s
     0     0 13464.2998    0 1004 15533.0000 13464.2998  13.3%     -   53s
     0     0 13465.5750    0 1005 15533.0000 13465.5750  13.3%     -   54s
     0     0 13514.1942    0 1007 15533.0000 13514.1942  13.0%     -   55s
     0     0 13519.7525    0 1024 15533.0000 13519.7525  13.0%     -   55s
     0     0 13521.2676    0 1056 15533.0000 13521.2676  13.0%     -   56s
     0     0 13521.6119    0 1062 15533.0000 13521.6119  12.9%     -   56s
     0     0 13533.1995    0 1034 15533.0000 13533.1995  12.9%     -   57s
H    0     0                    15525.000000 13533.1995  12.8%     -   57s
     0     0 13534.9473    0 1066 15525.0000 13534.9473  12.8%     -   57s
     0     0 13536.7356    0 1074 15525.0000 13536.7356  12.8%     -   57s
     0     0 13536.9967    0 1079 15525.0000 13536.9967  12.8%     -   58s
     0     0 13542.2725    0 1043 15525.0000 13542.2725  12.8%     -   58s
     0     0 13542.2725    0 1023 15525.0000 13542.2725  12.8%     -   58s
     0     2 13542.9914    0 1023 15525.0000 13542.9914  12.8%     -   60s
     7    14 13608.7744    3  985 15525.0000 13560.5916  12.7%  4688   67s
    15    20     cutoff    4      15525.0000 13565.3744  12.6%  5958   71s
    31    32 13812.9280    5  928 15525.0000 13567.4382  12.6%  6178   78s
H   32    32                    14801.000000 13567.4382  8.33%  5985   78s
    39    36 infeasible    6      14801.0000 13567.4991  8.33%  5988   80s
    47    38 14294.8595    6  903 14801.0000 13587.8499  8.20%  5823   85s
H   70    52                    14740.000000 13594.7429  7.77%  5223   89s
    75    59 14379.8572    8  832 14740.0000 13594.7429  7.77%  5187   93s
    84    63 14437.1281    9  844 14740.0000 13594.7429  7.77%  5110   96s
    97    63     cutoff   10      14740.0000 13616.5152  7.62%  4932  100s
H  118    72                    14729.000000 13616.5152  7.55%  4748  102s
   121    79 13781.1506    7 1009 14729.0000 13616.5152  7.55%  4854  105s
   152    87 13911.6556    9 1003 14729.0000 13616.5152  7.55%  4545  113s
H  155    87                    14727.000000 13616.5152  7.54%  4609  113s
   167    98 14016.1768   10  956 14727.0000 13616.5152  7.54%  4560  115s
   198   114 14671.4289   12  926 14727.0000 13616.5152  7.54%  4326  122s
H  203   114                    14337.000000 13616.5152  5.03%  4336  122s
H  217   114                    14335.000000 13616.5152  5.01%  4157  122s
   218   118 14258.3913   11  925 14335.0000 13616.5152  5.01%  4222  128s
   238   126 14280.0482   12  919 14335.0000 13616.5152  5.01%  4216  131s
H  255   126                    14288.000000 13616.5152  4.70%  4215  131s
   256   128     cutoff   13      14288.0000 13620.7145  4.67%  4199  136s
   276   140 13856.8794    6  929 14288.0000 13630.2095  4.60%  4210  140s
H  279   140                    14276.000000 13630.2095  4.52%  4223  140s
H  288   146                    14274.000000 13630.2095  4.51%  4267  144s
   305   167 13915.0177    7  758 14274.0000 13630.2095  4.51%  4292  147s
   335   176 13969.6866    8  797 14274.0000 13630.2095  4.51%  4142  152s
   367   184 13973.7854    8  870 14274.0000 13630.2095  4.51%  3911  155s
   414   190 13995.8542    9  845 14274.0000 13630.2095  4.51%  3622  163s
   449   201 14008.4378   10  838 14274.0000 13630.2095  4.51%  3582  167s
   476   209 14096.2554   12  819 14274.0000 13630.2095  4.51%  3568  172s
   508   221 14138.9516   14  771 14274.0000 13630.2095  4.51%  3514  179s
   540   229 14208.2628   15  773 14274.0000 13630.2095  4.51%  3538  183s
   570   245 14158.5346   16  724 14274.0000 13669.5359  4.23%  3542  189s
   616   257 13885.3921   11  674 14274.0000 13669.5359  4.23%  3457  195s
   659   263 14201.8210   18  629 14274.0000 13669.5359  4.23%  3429  201s
   690   271     cutoff   20      14274.0000 13729.9712  3.81%  3404  206s
   715   278 13878.6180    8  937 14274.0000 13729.9712  3.81%  3468  213s
   754   295 14090.9077   10  911 14274.0000 13729.9712  3.81%  3474  218s
   803   313     cutoff   14      14274.0000 13729.9712  3.81%  3407  224s
   859   311     cutoff   15      14274.0000 13750.1950  3.67%  3353  229s
   910   325 13752.9076   10 1010 14274.0000 13750.1950  3.67%  3317  235s
   952   331 13850.3673   13  826 14274.0000 13750.1950  3.67%  3326  242s
   996   348 13892.1896   16  733 14274.0000 13750.1950  3.67%  3282  250s
  1096   356 14268.7170   21  529 14274.0000 13750.1950  3.67%  3131  256s
  1185   375 14255.9884   24  572 14274.0000 13768.7134  3.54%  3020  263s
  1241   389 14000.5599   12  830 14274.0000 13768.7134  3.54%  3019  271s
  1312   400 14214.6979   15  613 14274.0000 13785.2664  3.42%  2988  278s
  1393   408 14123.0234   13  939 14274.0000 13815.0677  3.22%  2945  286s
  1449   436 14268.2500   14  935 14274.0000 13815.0677  3.22%  2971  294s
  1514   442     cutoff   15      14274.0000 13845.6314  3.00%  2967  302s
  1592   435 14157.9635   19  705 14274.0000 13872.1757  2.82%  2952  312s
  1669   440 14247.7745   18  577 14274.0000 13872.1757  2.82%  2951  321s
  1769   452 14158.6556   20  789 14274.0000 13872.1757  2.82%  2907  330s
  1840   450     cutoff   23      14274.0000 13901.9699  2.61%  2905  339s
  1919   460 14066.7215   19  866 14274.0000 13925.3599  2.44%  2911  349s
  2001   462     cutoff   25      14274.0000 13925.3599  2.44%  2910  361s
  2090   474 14257.3405   26  664 14274.0000 13928.7394  2.42%  2914  372s
  2219   472     cutoff   10      14274.0000 13945.7700  2.30%  2876  384s
  2361   496 infeasible   17      14274.0000 13962.9501  2.18%  2824  395s
  2501   519 14046.0483   18  857 14274.0000 13974.6946  2.10%  2777  410s
  2654   533     cutoff   15      14274.0000 13982.7041  2.04%  2744  424s
  2812   594     cutoff   16      14274.0000 13992.9912  1.97%  2723  436s
  3050   585 14250.2643   16  585 14274.0000 14001.6795  1.91%  2627  450s
  3201   577 14256.1819   16  757 14274.0000 14007.3080  1.87%  2632  466s
  3337   583     cutoff   20      14274.0000 14025.7543  1.74%  2635  481s
  3558   577 14250.0384   18  381 14274.0000 14038.9482  1.65%  2581  498s
  3688   575 14192.7105   21  296 14274.0000 14050.3662  1.57%  2604  519s
  3838   558 14203.6592   23  703 14274.0000 14056.6605  1.52%  2618  538s
  3976   525     cutoff   17      14274.0000 14079.2961  1.36%  2633  557s
  4147   536 14247.3662   37  244 14274.0000 14099.9660  1.22%  2632  575s
  4362   496 14214.2008   18  385 14274.0000 14122.8781  1.06%  2579  594s

Cutting planes:
  Gomory: 1
  Cover: 113
  Clique: 519
  MIR: 576
  StrongCG: 345
  GUB cover: 326
  Inf proof: 7
  Zero half: 28
  Relax-and-lift: 1

Explored 4582 nodes (12002094 simplex iterations) in 594.02 seconds (2014.54 work units)
Thread count was 8 (of 8 available processors)

Solution count 10: 14274 14276 14288 ... 15525

Time limit reached
Best objective 1.427400000000e+04, best bound 1.413900000000e+04, gap 0.9458%
